c turning on binary mode checking
c parsing input formula with 259840 variables and 1039924 clauses
c finished parsing, read 3080152 bytes from proof file
c detected empty clause; start verification via backward checking
c 4601 of 1039924 clauses in core                            
c 1699 of 115589 lemmas in core using 74692 resolution steps
c 0 RAT lemmas in core; 476 redundant literals in core lemmas
s VERIFIED
c verification time: 1.362 seconds
